problems/csplib-prob024/Langford-models/compact/O2/lingeling/model-langford_2_7-solution000001.eprime-solution
language ESSENCE' 1.0

letting seq_Function1D be [1, 7, 1, 2, 6, 4, 2, 5, 3, 7, 4, 6, 3, 5; int(1..14)]
