problems/csplib-prob024/Langford-models/compact/O2/lingeling/model-langford_2_7-solution000001.solution
language Essence 1.3

letting seq be
        function(1 --> 1, 2 --> 7, 3 --> 1, 4 --> 2, 5 --> 6, 6 --> 4, 7 --> 2, 8 --> 5, 9 --> 3, 10 --> 7, 11 --> 4,
                 12 --> 6, 13 --> 3, 14 --> 5)
